(set-info :source |printed by MathSAT|)
(declare-fun call__DRAGON_.ite31 () Int)
(declare-fun call__DRAGON_.shared () Int)
(declare-fun call__DRAGON_.g06 () Bool)
(declare-fun shared_dirty () Int)
(declare-fun call__DRAGON_.ite2 () Int)
(declare-fun call__DRAGON_.ite27 () Int)
(declare-fun call__DRAGON_.ite59 () Int)
(declare-fun call__DRAGON_.invalid () Int)
(declare-fun call__DRAGON_.ite48 () Int)
(declare-fun call__DRAGON_.ite54 () Int)
(declare-fun param_e08 () Bool)
(declare-fun call__DRAGON_.ite9 () Int)
(declare-fun param_e04 () Bool)
(declare-fun dirty () Int)
(declare-fun param_e10 () Bool)
(declare-fun param_e11 () Bool)
(declare-fun call__DRAGON_.ite29 () Int)
(declare-fun call__DRAGON_.ite51 () Int)
(declare-fun call__DRAGON_.ite32 () Int)
(declare-fun call__DRAGON_.ite13 () Int)
(declare-fun call__DRAGON_.ite38 () Int)
(declare-fun call_Sofar.flby () Bool)
(declare-fun call__DRAGON_.flby3 () Int)
(declare-fun call__DRAGON_.ite50 () Int)
(declare-fun param_e07 () Bool)
(declare-fun call__DRAGON_.ite6 () Int)
(declare-fun call__DRAGON_.ite40 () Int)
(declare-fun param_e12 () Bool)
(declare-fun call__DRAGON_.ite8 () Int)
(declare-fun call__DRAGON_.g05 () Bool)
(declare-fun call__DRAGON_.g08 () Bool)
(declare-fun call__DRAGON_.ite15 () Int)
(declare-fun param_init_invalid () Int)
(declare-fun call__DRAGON_.flby () Int)
(declare-fun call__DRAGON_.ite26 () Int)
(declare-fun call__DRAGON_.shared_dirty () Int)
(declare-fun call__DRAGON_.ite11 () Int)
(declare-fun call__DRAGON_.ite55 () Int)
(declare-fun call__DRAGON_.ite33 () Int)
(declare-fun shared () Int)
(declare-fun call__DRAGON_.ite46 () Int)
(declare-fun call__DRAGON_.ite3 () Int)
(declare-fun invalid () Int)
(declare-fun call__DRAGON_.ite28 () Int)
(declare-fun call__DRAGON_.flby4 () Int)
(declare-fun call__DRAGON_.ite37 () Int)
(declare-fun call__DRAGON_.ite34 () Int)
(declare-fun call__DRAGON_.ite61 () Int)
(declare-fun call__DRAGON_.flby2 () Int)
(declare-fun call_excludes12.excludes () Bool)
(declare-fun exclusive () Int)
(declare-fun call__DRAGON_.g02 () Bool)
(declare-fun call__DRAGON_.flby5 () Int)
(declare-fun call__DRAGON_.ite () Bool)
(declare-fun call__DRAGON_.ite41 () Int)
(declare-fun _OK_ () Bool)
(declare-fun call__DRAGON_.ite18 () Int)
(declare-fun call__DRAGON_.ite45 () Int)
(declare-fun call__DRAGON_.ite23 () Int)
(declare-fun call__DRAGON_.ite30 () Int)
(declare-fun call__DRAGON_.ite7 () Int)
(declare-fun call__DRAGON_.ite49 () Int)
(declare-fun call__DRAGON_.ite5 () Int)
(declare-fun call__DRAGON_.ite12 () Int)
(declare-fun param_e09 () Bool)
(declare-fun call__DRAGON_.ite20 () Int)
(declare-fun call__DRAGON_.erreur () Bool)
(declare-fun call__DRAGON_.ite36 () Int)
(declare-fun call__DRAGON_.ite60 () Int)
(declare-fun call__DRAGON_.g04 () Bool)
(declare-fun call__DRAGON_.ite4 () Int)
(declare-fun call__DRAGON_.ite16 () Int)
(declare-fun param_e06 () Bool)
(declare-fun call__DRAGON_.ite19 () Int)
(declare-fun call__DRAGON_.ite52 () Int)
(declare-fun call__DRAGON_.ite56 () Int)
(declare-fun param_e03 () Bool)
(declare-fun call__DRAGON_.ite22 () Int)
(declare-fun env () Bool)
(declare-fun call__DRAGON_.ite53 () Int)
(declare-fun call__DRAGON_.ite35 () Int)
(declare-fun call__DRAGON_.ite58 () Int)
(declare-fun call__DRAGON_.flby6 () Int)
(declare-fun call__DRAGON_.ite44 () Int)
(declare-fun param_e05 () Bool)
(declare-fun call__DRAGON_.exclusive () Int)
(declare-fun param_e01 () Bool)
(declare-fun call__DRAGON_.dirty () Int)
(declare-fun call__DRAGON_.ite24 () Int)
(declare-fun call__DRAGON_.ite39 () Int)
(declare-fun call__DRAGON_.ite10 () Int)
(declare-fun call_Sofar.Sofar () Bool)
(declare-fun call__DRAGON_.ite21 () Int)
(declare-fun call__DRAGON_.ite57 () Int)
(declare-fun call__DRAGON_.ite47 () Int)
(declare-fun call__DRAGON_.ite43 () Int)
(declare-fun call__DRAGON_.ite14 () Int)
(declare-fun call__DRAGON_.mem_init () Int)
(declare-fun call__DRAGON_.ite17 () Int)
(declare-fun call__DRAGON_.ite42 () Int)
(declare-fun param_e02 () Bool)
(declare-fun erreur () Bool)
(declare-fun call__DRAGON_.ite25 () Int)
(define-fun .def_1718 () Bool (= call_Sofar.flby call_Sofar.Sofar))
(define-fun .def_1527 () Bool (not param_e02))
(define-fun .def_1508 () Bool (not param_e01))
(define-fun .def_1616 () Bool (and .def_1508 .def_1527))
(define-fun .def_1567 () Bool (not param_e03))
(define-fun .def_1617 () Bool (and .def_1567 .def_1616))
(define-fun .def_1583 () Bool (not param_e04))
(define-fun .def_1618 () Bool (and .def_1583 .def_1617))
(define-fun .def_1376 () Bool (not param_e05))
(define-fun .def_1619 () Bool (and .def_1376 .def_1618))
(define-fun .def_1360 () Bool (not param_e06))
(define-fun .def_1620 () Bool (and .def_1360 .def_1619))
(define-fun .def_1396 () Bool (not param_e07))
(define-fun .def_1621 () Bool (and .def_1396 .def_1620))
(define-fun .def_1414 () Bool (not param_e08))
(define-fun .def_1622 () Bool (and .def_1414 .def_1621))
(define-fun .def_1256 () Bool (not param_e09))
(define-fun .def_1623 () Bool (and .def_1256 .def_1622))
(define-fun .def_1262 () Bool (not param_e10))
(define-fun .def_1624 () Bool (and .def_1262 .def_1623))
(define-fun .def_1269 () Bool (not param_e11))
(define-fun .def_1625 () Bool (and .def_1269 .def_1624))
(define-fun .def_1276 () Bool (not param_e12))
(define-fun .def_1703 () Bool (and .def_1276 .def_1625))
(define-fun .def_1692 () Bool (and param_e01 .def_1527))
(define-fun .def_1693 () Bool (and .def_1567 .def_1692))
(define-fun .def_1694 () Bool (and .def_1583 .def_1693))
(define-fun .def_1695 () Bool (and .def_1376 .def_1694))
(define-fun .def_1696 () Bool (and .def_1360 .def_1695))
(define-fun .def_1697 () Bool (and .def_1396 .def_1696))
(define-fun .def_1698 () Bool (and .def_1414 .def_1697))
(define-fun .def_1699 () Bool (and .def_1256 .def_1698))
(define-fun .def_1700 () Bool (and .def_1262 .def_1699))
(define-fun .def_1701 () Bool (and .def_1269 .def_1700))
(define-fun .def_1702 () Bool (and .def_1276 .def_1701))
(define-fun .def_1704 () Bool (or .def_1702 .def_1703))
(define-fun .def_1681 () Bool (and .def_1508 param_e02))
(define-fun .def_1682 () Bool (and .def_1567 .def_1681))
(define-fun .def_1683 () Bool (and .def_1583 .def_1682))
(define-fun .def_1684 () Bool (and .def_1376 .def_1683))
(define-fun .def_1685 () Bool (and .def_1360 .def_1684))
(define-fun .def_1686 () Bool (and .def_1396 .def_1685))
(define-fun .def_1687 () Bool (and .def_1414 .def_1686))
(define-fun .def_1688 () Bool (and .def_1256 .def_1687))
(define-fun .def_1689 () Bool (and .def_1262 .def_1688))
(define-fun .def_1690 () Bool (and .def_1269 .def_1689))
(define-fun .def_1691 () Bool (and .def_1276 .def_1690))
(define-fun .def_1705 () Bool (or .def_1691 .def_1704))
(define-fun .def_1671 () Bool (and param_e03 .def_1616))
(define-fun .def_1672 () Bool (and .def_1583 .def_1671))
(define-fun .def_1673 () Bool (and .def_1376 .def_1672))
(define-fun .def_1674 () Bool (and .def_1360 .def_1673))
(define-fun .def_1675 () Bool (and .def_1396 .def_1674))
(define-fun .def_1676 () Bool (and .def_1414 .def_1675))
(define-fun .def_1677 () Bool (and .def_1256 .def_1676))
(define-fun .def_1678 () Bool (and .def_1262 .def_1677))
(define-fun .def_1679 () Bool (and .def_1269 .def_1678))
(define-fun .def_1680 () Bool (and .def_1276 .def_1679))
(define-fun .def_1706 () Bool (or .def_1680 .def_1705))
(define-fun .def_1662 () Bool (and param_e04 .def_1617))
(define-fun .def_1663 () Bool (and .def_1376 .def_1662))
(define-fun .def_1664 () Bool (and .def_1360 .def_1663))
(define-fun .def_1665 () Bool (and .def_1396 .def_1664))
(define-fun .def_1666 () Bool (and .def_1414 .def_1665))
(define-fun .def_1667 () Bool (and .def_1256 .def_1666))
(define-fun .def_1668 () Bool (and .def_1262 .def_1667))
(define-fun .def_1669 () Bool (and .def_1269 .def_1668))
(define-fun .def_1670 () Bool (and .def_1276 .def_1669))
(define-fun .def_1707 () Bool (or .def_1670 .def_1706))
(define-fun .def_1654 () Bool (and param_e05 .def_1618))
(define-fun .def_1655 () Bool (and .def_1360 .def_1654))
(define-fun .def_1656 () Bool (and .def_1396 .def_1655))
(define-fun .def_1657 () Bool (and .def_1414 .def_1656))
(define-fun .def_1658 () Bool (and .def_1256 .def_1657))
(define-fun .def_1659 () Bool (and .def_1262 .def_1658))
(define-fun .def_1660 () Bool (and .def_1269 .def_1659))
(define-fun .def_1661 () Bool (and .def_1276 .def_1660))
(define-fun .def_1708 () Bool (or .def_1661 .def_1707))
(define-fun .def_1647 () Bool (and param_e06 .def_1619))
(define-fun .def_1648 () Bool (and .def_1396 .def_1647))
(define-fun .def_1649 () Bool (and .def_1414 .def_1648))
(define-fun .def_1650 () Bool (and .def_1256 .def_1649))
(define-fun .def_1651 () Bool (and .def_1262 .def_1650))
(define-fun .def_1652 () Bool (and .def_1269 .def_1651))
(define-fun .def_1653 () Bool (and .def_1276 .def_1652))
(define-fun .def_1709 () Bool (or .def_1653 .def_1708))
(define-fun .def_1641 () Bool (and param_e07 .def_1620))
(define-fun .def_1642 () Bool (and .def_1414 .def_1641))
(define-fun .def_1643 () Bool (and .def_1256 .def_1642))
(define-fun .def_1644 () Bool (and .def_1262 .def_1643))
(define-fun .def_1645 () Bool (and .def_1269 .def_1644))
(define-fun .def_1646 () Bool (and .def_1276 .def_1645))
(define-fun .def_1710 () Bool (or .def_1646 .def_1709))
(define-fun .def_1636 () Bool (and param_e08 .def_1621))
(define-fun .def_1637 () Bool (and .def_1256 .def_1636))
(define-fun .def_1638 () Bool (and .def_1262 .def_1637))
(define-fun .def_1639 () Bool (and .def_1269 .def_1638))
(define-fun .def_1640 () Bool (and .def_1276 .def_1639))
(define-fun .def_1711 () Bool (or .def_1640 .def_1710))
(define-fun .def_1632 () Bool (and param_e09 .def_1622))
(define-fun .def_1633 () Bool (and .def_1262 .def_1632))
(define-fun .def_1634 () Bool (and .def_1269 .def_1633))
(define-fun .def_1635 () Bool (and .def_1276 .def_1634))
(define-fun .def_1712 () Bool (or .def_1635 .def_1711))
(define-fun .def_1629 () Bool (and param_e10 .def_1623))
(define-fun .def_1630 () Bool (and .def_1269 .def_1629))
(define-fun .def_1631 () Bool (and .def_1276 .def_1630))
(define-fun .def_1713 () Bool (or .def_1631 .def_1712))
(define-fun .def_1627 () Bool (and param_e11 .def_1624))
(define-fun .def_1628 () Bool (and .def_1276 .def_1627))
(define-fun .def_1714 () Bool (or .def_1628 .def_1713))
(define-fun .def_1626 () Bool (and param_e12 .def_1625))
(define-fun .def_1715 () Bool (or .def_1626 .def_1714))
(define-fun .def_1716 () Bool (= call_excludes12.excludes .def_1715))
(define-fun .def_1614 () Bool (= call__DRAGON_.mem_init call__DRAGON_.flby))
(define-fun .def_1612 () Bool (= call__DRAGON_.erreur call__DRAGON_.ite))
(define-fun .def_1610 () Bool (= call__DRAGON_.flby6 call__DRAGON_.invalid))
(define-fun .def_1608 () Bool (= call__DRAGON_.flby5 call__DRAGON_.dirty))
(define-fun .def_1606 () Bool (= call__DRAGON_.flby4 call__DRAGON_.shared_dirty))
(define-fun .def_1604 () Bool (= call__DRAGON_.flby3 call__DRAGON_.shared))
(define-fun .def_1601 () Bool (= call__DRAGON_.flby2 call__DRAGON_.exclusive))
(define-fun .def_1596 () Bool (<= 2 call__DRAGON_.exclusive))
(define-fun .def_1598 () Bool (not .def_1596))
(define-fun .def_1599 () Bool (or call__DRAGON_.ite .def_1598))
(define-fun .def_1595 () Bool (not call__DRAGON_.ite))
(define-fun .def_1597 () Bool (or .def_1595 .def_1596))
(define-fun .def_1600 () Bool (and .def_1597 .def_1599))
(define-fun .def_1602 () Bool (and .def_1600 .def_1601))
(define-fun .def_1590 () Bool (= call__DRAGON_.ite42 call__DRAGON_.ite43))
(define-fun .def_1591 () Bool (or param_e04 .def_1590))
(define-fun .def_1587 () Bool (= call__DRAGON_.ite43 call__DRAGON_.ite34))
(define-fun .def_1588 () Bool (or .def_1583 .def_1587))
(define-fun .def_1582 () Bool (= call__DRAGON_.ite23 call__DRAGON_.ite30))
(define-fun .def_1584 () Bool (or .def_1582 .def_1583))
(define-fun .def_1579 () Bool (= call__DRAGON_.ite29 call__DRAGON_.ite30))
(define-fun .def_1581 () Bool (or .def_1579 param_e04))
(define-fun .def_1585 () Bool (and .def_1581 .def_1584))
(define-fun .def_1589 () Bool (and .def_1585 .def_1588))
(define-fun .def_1592 () Bool (and .def_1589 .def_1591))
(define-fun .def_1575 () Bool (= call__DRAGON_.ite44 call__DRAGON_.ite43))
(define-fun .def_1576 () Bool (or param_e03 .def_1575))
(define-fun .def_1571 () Bool (= call__DRAGON_.ite44 call__DRAGON_.ite33))
(define-fun .def_1572 () Bool (or .def_1567 .def_1571))
(define-fun .def_1566 () Bool (= call__DRAGON_.ite9 call__DRAGON_.ite4))
(define-fun .def_1568 () Bool (or .def_1566 .def_1567))
(define-fun .def_1562 () Bool (= call__DRAGON_.ite8 call__DRAGON_.ite9))
(define-fun .def_1564 () Bool (or .def_1562 param_e03))
(define-fun .def_1569 () Bool (and .def_1564 .def_1568))
(define-fun .def_1573 () Bool (and .def_1569 .def_1572))
(define-fun .def_1577 () Bool (and .def_1573 .def_1576))
(define-fun .def_1558 () Bool (= call__DRAGON_.ite31 call__DRAGON_.ite30))
(define-fun .def_1559 () Bool (or param_e02 .def_1558))
(define-fun .def_1554 () Bool (= call__DRAGON_.ite22 call__DRAGON_.ite31))
(define-fun .def_1555 () Bool (or .def_1527 .def_1554))
(define-fun .def_1549 () Bool (= call__DRAGON_.ite20 call__DRAGON_.ite21))
(define-fun .def_1550 () Bool (or param_e02 .def_1549))
(define-fun .def_1546 () Bool (= call__DRAGON_.ite12 call__DRAGON_.ite21))
(define-fun .def_1547 () Bool (or .def_1527 .def_1546))
(define-fun .def_1541 () Bool (= call__DRAGON_.ite10 call__DRAGON_.ite9))
(define-fun .def_1542 () Bool (or param_e02 .def_1541))
(define-fun .def_1537 () Bool (= call__DRAGON_.ite3 call__DRAGON_.ite10))
(define-fun .def_1538 () Bool (or .def_1527 .def_1537))
(define-fun .def_1534 () Bool (= call__DRAGON_.ite59 call__DRAGON_.ite60))
(define-fun .def_1535 () Bool (or param_e02 .def_1534))
(define-fun .def_1531 () Bool (= call__DRAGON_.ite60 call__DRAGON_.ite47))
(define-fun .def_1532 () Bool (or .def_1527 .def_1531))
(define-fun .def_1526 () Bool (= call__DRAGON_.ite32 call__DRAGON_.ite45))
(define-fun .def_1528 () Bool (or .def_1526 .def_1527))
(define-fun .def_1523 () Bool (= call__DRAGON_.ite45 call__DRAGON_.ite44))
(define-fun .def_1525 () Bool (or .def_1523 param_e02))
(define-fun .def_1529 () Bool (and .def_1525 .def_1528))
(define-fun .def_1533 () Bool (and .def_1529 .def_1532))
(define-fun .def_1536 () Bool (and .def_1533 .def_1535))
(define-fun .def_1539 () Bool (and .def_1536 .def_1538))
(define-fun .def_1543 () Bool (and .def_1539 .def_1542))
(define-fun .def_1548 () Bool (and .def_1543 .def_1547))
(define-fun .def_1551 () Bool (and .def_1548 .def_1550))
(define-fun .def_1556 () Bool (and .def_1551 .def_1555))
(define-fun .def_1560 () Bool (and .def_1556 .def_1559))
(define-fun .def_1517 () Bool (= call__DRAGON_.ite11 call__DRAGON_.ite10))
(define-fun .def_1518 () Bool (or param_e01 .def_1517))
(define-fun .def_1513 () Bool (= call__DRAGON_.ite2 call__DRAGON_.ite11))
(define-fun .def_1514 () Bool (or .def_1508 .def_1513))
(define-fun .def_1507 () Bool (= call__DRAGON_.ite61 call__DRAGON_.ite46))
(define-fun .def_1509 () Bool (or .def_1507 .def_1508))
(define-fun .def_1503 () Bool (= call__DRAGON_.ite61 call__DRAGON_.ite60))
(define-fun .def_1505 () Bool (or .def_1503 param_e01))
(define-fun .def_1510 () Bool (and .def_1505 .def_1509))
(define-fun .def_1515 () Bool (and .def_1510 .def_1514))
(define-fun .def_1519 () Bool (and .def_1515 .def_1518))
(define-fun .def_1497 () Bool (= call__DRAGON_.ite55 call__DRAGON_.ite52))
(define-fun .def_1498 () Bool (or .def_1269 .def_1497))
(define-fun .def_1494 () Bool (= call__DRAGON_.ite54 call__DRAGON_.ite55))
(define-fun .def_1495 () Bool (or param_e11 .def_1494))
(define-fun .def_1499 () Bool (and .def_1495 .def_1498))
(define-fun .def_1490 () Bool (= call__DRAGON_.ite56 call__DRAGON_.ite51))
(define-fun .def_1491 () Bool (or .def_1262 .def_1490))
(define-fun .def_1487 () Bool (= call__DRAGON_.ite56 call__DRAGON_.ite55))
(define-fun .def_1488 () Bool (or param_e10 .def_1487))
(define-fun .def_1492 () Bool (and .def_1488 .def_1491))
(define-fun .def_1484 () Bool (= env call_Sofar.Sofar))
(define-fun .def_1479 () Bool (= call__DRAGON_.ite57 call__DRAGON_.ite50))
(define-fun .def_1480 () Bool (or .def_1256 .def_1479))
(define-fun .def_1476 () Bool (= call__DRAGON_.ite57 call__DRAGON_.ite56))
(define-fun .def_1477 () Bool (or param_e09 .def_1476))
(define-fun .def_1481 () Bool (and .def_1477 .def_1480))
(define-fun .def_1473 () Bool (= erreur call__DRAGON_.erreur))
(define-fun .def_1469 () Bool (= invalid call__DRAGON_.invalid))
(define-fun .def_1465 () Bool (= dirty call__DRAGON_.dirty))
(define-fun .def_1462 () Bool (= shared_dirty call__DRAGON_.shared_dirty))
(define-fun .def_1458 () Bool (= shared call__DRAGON_.shared))
(define-fun .def_1454 () Bool (= exclusive call__DRAGON_.exclusive))
(define-fun .def_1448 () Bool (<= dirty 1))
(define-fun .def_1446 () Bool (not env))
(define-fun .def_1449 () Bool (or .def_1446 .def_1448))
(define-fun .def_1450 () Bool (= _OK_ .def_1449))
(define-fun .def_1440 () Bool (= call__DRAGON_.ite39 call__DRAGON_.ite40))
(define-fun .def_1441 () Bool (or param_e08 .def_1440))
(define-fun .def_1437 () Bool (= call__DRAGON_.ite37 call__DRAGON_.ite40))
(define-fun .def_1438 () Bool (or .def_1414 .def_1437))
(define-fun .def_1434 () Bool (= call__DRAGON_.ite27 call__DRAGON_.ite28))
(define-fun .def_1435 () Bool (or param_e08 .def_1434))
(define-fun .def_1431 () Bool (= call__DRAGON_.ite25 call__DRAGON_.ite28))
(define-fun .def_1432 () Bool (or .def_1414 .def_1431))
(define-fun .def_1428 () Bool (= call__DRAGON_.ite17 call__DRAGON_.ite18))
(define-fun .def_1429 () Bool (or param_e08 .def_1428))
(define-fun .def_1425 () Bool (= call__DRAGON_.ite18 call__DRAGON_.ite15))
(define-fun .def_1426 () Bool (or .def_1414 .def_1425))
(define-fun .def_1421 () Bool (= call__DRAGON_.ite7 call__DRAGON_.ite8))
(define-fun .def_1422 () Bool (or param_e08 .def_1421))
(define-fun .def_1418 () Bool (= call__DRAGON_.ite5 call__DRAGON_.ite8))
(define-fun .def_1419 () Bool (or .def_1414 .def_1418))
(define-fun .def_1413 () Bool (= call__DRAGON_.ite58 call__DRAGON_.ite49))
(define-fun .def_1415 () Bool (or .def_1413 .def_1414))
(define-fun .def_1409 () Bool (= call__DRAGON_.ite58 call__DRAGON_.ite57))
(define-fun .def_1411 () Bool (or .def_1409 param_e08))
(define-fun .def_1416 () Bool (and .def_1411 .def_1415))
(define-fun .def_1420 () Bool (and .def_1416 .def_1419))
(define-fun .def_1423 () Bool (and .def_1420 .def_1422))
(define-fun .def_1427 () Bool (and .def_1423 .def_1426))
(define-fun .def_1430 () Bool (and .def_1427 .def_1429))
(define-fun .def_1433 () Bool (and .def_1430 .def_1432))
(define-fun .def_1436 () Bool (and .def_1433 .def_1435))
(define-fun .def_1439 () Bool (and .def_1436 .def_1438))
(define-fun .def_1442 () Bool (and .def_1439 .def_1441))
(define-fun .def_1404 () Bool (= call__DRAGON_.ite41 call__DRAGON_.ite40))
(define-fun .def_1405 () Bool (or param_e07 .def_1404))
(define-fun .def_1400 () Bool (= call__DRAGON_.ite41 call__DRAGON_.ite36))
(define-fun .def_1401 () Bool (or .def_1396 .def_1400))
(define-fun .def_1395 () Bool (= call__DRAGON_.ite59 call__DRAGON_.ite48))
(define-fun .def_1397 () Bool (or .def_1395 .def_1396))
(define-fun .def_1391 () Bool (= call__DRAGON_.ite58 call__DRAGON_.ite59))
(define-fun .def_1393 () Bool (or .def_1391 param_e07))
(define-fun .def_1398 () Bool (and .def_1393 .def_1397))
(define-fun .def_1402 () Bool (and .def_1398 .def_1401))
(define-fun .def_1406 () Bool (and .def_1402 .def_1405))
(define-fun .def_1385 () Bool (= call__DRAGON_.ite42 call__DRAGON_.ite41))
(define-fun .def_1386 () Bool (or param_e05 .def_1385))
(define-fun .def_1381 () Bool (= call__DRAGON_.ite35 call__DRAGON_.ite42))
(define-fun .def_1382 () Bool (or .def_1376 .def_1381))
(define-fun .def_1375 () Bool (= call__DRAGON_.ite13 call__DRAGON_.ite20))
(define-fun .def_1377 () Bool (or .def_1375 .def_1376))
(define-fun .def_1372 () Bool (= call__DRAGON_.ite19 call__DRAGON_.ite20))
(define-fun .def_1374 () Bool (or .def_1372 param_e05))
(define-fun .def_1378 () Bool (and .def_1374 .def_1377))
(define-fun .def_1383 () Bool (and .def_1378 .def_1382))
(define-fun .def_1387 () Bool (and .def_1383 .def_1386))
(define-fun .def_1368 () Bool (= call__DRAGON_.ite29 call__DRAGON_.ite28))
(define-fun .def_1369 () Bool (or param_e06 .def_1368))
(define-fun .def_1364 () Bool (= call__DRAGON_.ite24 call__DRAGON_.ite29))
(define-fun .def_1365 () Bool (or .def_1360 .def_1364))
(define-fun .def_1359 () Bool (= call__DRAGON_.ite19 call__DRAGON_.ite14))
(define-fun .def_1361 () Bool (or .def_1359 .def_1360))
(define-fun .def_1355 () Bool (= call__DRAGON_.ite19 call__DRAGON_.ite18))
(define-fun .def_1357 () Bool (or .def_1355 param_e06))
(define-fun .def_1362 () Bool (and .def_1357 .def_1361))
(define-fun .def_1366 () Bool (and .def_1362 .def_1365))
(define-fun .def_1370 () Bool (and .def_1366 .def_1369))
(define-fun .def_1388 () Bool (and .def_1370 .def_1387))
(define-fun .def_1407 () Bool (and .def_1388 .def_1406))
(define-fun .def_1443 () Bool (and .def_1407 .def_1442))
(define-fun .def_1451 () Bool (and .def_1443 .def_1450))
(define-fun .def_1455 () Bool (and .def_1451 .def_1454))
(define-fun .def_1459 () Bool (and .def_1455 .def_1458))
(define-fun .def_1463 () Bool (and .def_1459 .def_1462))
(define-fun .def_1466 () Bool (and .def_1463 .def_1465))
(define-fun .def_1470 () Bool (and .def_1466 .def_1469))
(define-fun .def_1474 () Bool (and .def_1470 .def_1473))
(define-fun .def_1482 () Bool (and .def_1474 .def_1481))
(define-fun .def_1485 () Bool (and .def_1482 .def_1484))
(define-fun .def_1493 () Bool (and .def_1485 .def_1492))
(define-fun .def_1500 () Bool (and .def_1493 .def_1499))
(define-fun .def_1520 () Bool (and .def_1500 .def_1519))
(define-fun .def_1561 () Bool (and .def_1520 .def_1560))
(define-fun .def_1578 () Bool (and .def_1561 .def_1577))
(define-fun .def_1593 () Bool (and .def_1578 .def_1592))
(define-fun .def_1603 () Bool (and .def_1593 .def_1602))
(define-fun .def_1605 () Bool (and .def_1603 .def_1604))
(define-fun .def_1607 () Bool (and .def_1605 .def_1606))
(define-fun .def_1609 () Bool (and .def_1607 .def_1608))
(define-fun .def_1611 () Bool (and .def_1609 .def_1610))
(define-fun .def_1613 () Bool (and .def_1611 .def_1612))
(define-fun .def_1615 () Bool (and .def_1613 .def_1614))
(define-fun .def_1717 () Bool (and .def_1615 .def_1716))
(define-fun .def_1719 () Bool (and .def_1717 .def_1718))
(define-fun .def_1346 () Bool (<= param_init_invalid 0))
(define-fun .def_1347 () Bool (not .def_1346))
(define-fun .def_1349 () Bool (and .def_1347 call_excludes12.excludes))
(define-fun .def_1351 () Bool (= .def_1349 call_Sofar.flby))
(define-fun .def_1344 () Bool (= call__DRAGON_.flby4 0))
(define-fun .def_1341 () Bool (= call__DRAGON_.flby3 0))
(define-fun .def_1338 () Bool (= call__DRAGON_.flby2 0))
(define-fun .def_1335 () Bool (= param_init_invalid call__DRAGON_.flby))
(define-fun .def_1329 () Bool (= call__DRAGON_.ite37 0))
(define-fun .def_1322 () Bool (not call__DRAGON_.g08))
(define-fun .def_1330 () Bool (or .def_1322 .def_1329))
(define-fun .def_1325 () Bool (= call__DRAGON_.ite5 0))
(define-fun .def_1326 () Bool (or .def_1322 .def_1325))
(define-fun .def_1320 () Bool (= call__DRAGON_.ite25 1))
(define-fun .def_1323 () Bool (or .def_1320 .def_1322))
(define-fun .def_1327 () Bool (and .def_1323 .def_1326))
(define-fun .def_1331 () Bool (and .def_1327 .def_1330))
(define-fun .def_1316 () Bool (= call__DRAGON_.ite24 1))
(define-fun .def_1314 () Bool (not call__DRAGON_.g06))
(define-fun .def_1317 () Bool (or .def_1314 .def_1316))
(define-fun .def_1310 () Bool (= call__DRAGON_.ite13 0))
(define-fun .def_1308 () Bool (not call__DRAGON_.g05))
(define-fun .def_1311 () Bool (or .def_1308 .def_1310))
(define-fun .def_1304 () Bool (= call__DRAGON_.ite23 0))
(define-fun .def_1302 () Bool (not call__DRAGON_.g04))
(define-fun .def_1305 () Bool (or .def_1302 .def_1304))
(define-fun .def_1297 () Bool (= call__DRAGON_.ite3 0))
(define-fun .def_1294 () Bool (not call__DRAGON_.g02))
(define-fun .def_1298 () Bool (or .def_1294 .def_1297))
(define-fun .def_1292 () Bool (= call__DRAGON_.ite32 0))
(define-fun .def_1295 () Bool (or .def_1292 .def_1294))
(define-fun .def_1299 () Bool (and .def_1295 .def_1298))
(define-fun .def_1289 () Bool (= call__DRAGON_.flby6 call__DRAGON_.mem_init))
(define-fun .def_1285 () Bool (= call__DRAGON_.flby5 0))
(define-fun .def_1280 () Bool (= call__DRAGON_.ite53 call__DRAGON_.ite54))
(define-fun .def_1281 () Bool (or .def_1276 .def_1280))
(define-fun .def_1274 () Bool (= call__DRAGON_.ite6 call__DRAGON_.ite7))
(define-fun .def_1277 () Bool (or .def_1274 .def_1276))
(define-fun .def_1282 () Bool (and .def_1277 .def_1281))
(define-fun .def_1267 () Bool (= call__DRAGON_.ite26 call__DRAGON_.ite27))
(define-fun .def_1270 () Bool (or .def_1267 .def_1269))
(define-fun .def_1260 () Bool (= call__DRAGON_.ite16 call__DRAGON_.ite17))
(define-fun .def_1263 () Bool (or .def_1260 .def_1262))
(define-fun .def_1254 () Bool (= call__DRAGON_.ite38 call__DRAGON_.ite39))
(define-fun .def_1257 () Bool (or .def_1254 .def_1256))
(define-fun .def_1264 () Bool (and .def_1257 .def_1263))
(define-fun .def_1271 () Bool (and .def_1264 .def_1270))
(define-fun .def_1283 () Bool (and .def_1271 .def_1282))
(define-fun .def_1286 () Bool (and .def_1283 .def_1285))
(define-fun .def_1290 () Bool (and .def_1286 .def_1289))
(define-fun .def_1300 () Bool (and .def_1290 .def_1299))
(define-fun .def_1306 () Bool (and .def_1300 .def_1305))
(define-fun .def_1312 () Bool (and .def_1306 .def_1311))
(define-fun .def_1318 () Bool (and .def_1312 .def_1317))
(define-fun .def_1332 () Bool (and .def_1318 .def_1331))
(define-fun .def_1336 () Bool (and .def_1332 .def_1335))
(define-fun .def_1339 () Bool (and .def_1336 .def_1338))
(define-fun .def_1342 () Bool (and .def_1339 .def_1341))
(define-fun .def_1345 () Bool (and .def_1342 .def_1344))
(define-fun .def_1352 () Bool (and .def_1345 .def_1351))
(define-fun .def_1720 () Bool (and .def_1352 .def_1719))
(assert .def_1720)
